nBusiness = 60;
nMeetings = 237;
nTables = 27;
nTotalSlots = 10;
nMorningSlots = 10;

requested = [|1, 56, 3,
|1, 2, 3,
|1, 25, 3,
|1, 36, 3,
|1, 51, 3,
|46, 1, 3,
|18, 1, 3,
|14, 1, 3,
|14, 2, 3,
|3, 22, 3,
|4, 15, 3,
|4, 43, 3,
|17, 4, 3,
|14, 4, 3,
|6, 4, 3,
|4, 45, 3,
|4, 59, 3,
|57, 4, 3,
|5, 48, 3,
|9, 7, 3,
|9, 8, 3,
|9, 11, 3,
|9, 13, 3,
|10, 6, 3,
|10, 13, 3,
|10, 45, 3,
|10, 51, 3,
|10, 11, 3,
|14, 3, 3,
|14, 7, 3,
|16, 12, 3,
|16, 15, 3,
|16, 29, 3,
|16, 44, 3,
|17, 6, 3,
|17, 60, 3,
|57, 17, 3,
|14, 17, 3,
|18, 15, 3,
|18, 41, 3,
|20, 15, 3,
|20, 29, 3,
|20, 25, 3,
|20, 35, 3,
|20, 45, 3,
|20, 48, 3,
|24, 20, 3,
|21, 2, 3,
|21, 16, 3,
|21, 19, 3,
|21, 41, 3,
|21, 45, 3,
|31, 21, 3,
|23, 2, 3,
|23, 12, 3,
|23, 13, 3,
|23, 15, 3,
|23, 45, 3,
|23, 48, 3,
|7, 23, 3,
|23, 3, 3,
|24, 6, 3,
|24, 11, 3,
|24, 16, 3,
|24, 33, 3,
|24, 35, 3,
|24, 37, 3,
|24, 51, 3,
|24, 55, 3,
|24, 5, 3,
|25, 37, 3,
|25, 5, 3,
|25, 7, 3,
|25, 12, 3,
|25, 15, 3,
|44, 25, 3,
|26, 22, 3,
|26, 30, 3,
|26, 38, 3,
|26, 39, 3,
|26, 47, 3,
|26, 14, 3,
|40, 26, 3,
|46, 26, 3,
|21, 26, 3,
|18, 26, 3,
|40, 27, 3,
|10, 27, 3,
|57, 27, 3,
|20, 27, 3,
|44, 27, 3,
|14, 27, 3,
|28, 5, 3,
|28, 7, 3,
|28, 13, 3,
|28, 6, 3,
|28, 12, 3,
|14, 28, 3,
|29, 15, 3,
|29, 56, 3,
|29, 37, 3,
|2, 29, 3,
|17, 29, 3,
|55, 29, 3,
|53, 29, 3,
|40, 30, 3,
|57, 30, 3,
|20, 30, 3,
|31, 13, 3,
|31, 5, 3,
|31, 7, 3,
|14, 31, 3,
|6, 31, 3,
|33, 29, 3,
|33, 37, 3,
|33, 44, 3,
|17, 33, 3,
|6, 33, 3,
|25, 33, 3,
|10, 33, 3,
|9, 33, 3,
|35, 7, 3,
|35, 39, 3,
|35, 45, 3,
|36, 12, 3,
|36, 13, 3,
|36, 32, 3,
|2, 36, 3,
|16, 36, 3,
|57, 36, 3,
|9, 37, 3,
|37, 32, 3,
|38, 37, 3,
|38, 54, 3,
|1, 38, 3,
|23, 38, 3,
|20, 38, 3,
|21, 38, 3,
|10, 38, 3,
|18, 38, 3,
|40, 38, 3,
|40, 45, 3,
|1, 40, 3,
|40, 15, 3,
|46, 40, 3,
|52, 40, 3,
|41, 6, 3,
|41, 7, 3,
|41, 8, 3,
|41, 11, 3,
|42, 2, 3,
|42, 7, 3,
|42, 39, 3,
|42, 41, 3,
|42, 25, 3,
|21, 42, 3,
|37, 42, 3,
|55, 42, 3,
|42, 3, 3,
|42, 8, 3,
|43, 8, 3,
|43, 12, 3,
|43, 44, 3,
|3, 43, 3,
|43, 7, 3,
|43, 49, 3,
|16, 43, 3,
|18, 43, 3,
|37, 43, 3,
|44, 51, 3,
|44, 2, 3,
|44, 15, 3,
|44, 6, 3,
|46, 2, 3,
|46, 3, 3,
|46, 16, 3,
|46, 48, 3,
|46, 49, 3,
|52, 46, 3,
|47, 22, 3,
|47, 39, 3,
|49, 56, 3,
|28, 49, 3,
|53, 49, 3,
|12, 49, 3,
|9, 49, 3,
|50, 18, 3,
|50, 33, 3,
|50, 34, 3,
|50, 41, 3,
|40, 50, 3,
|46, 50, 3,
|35, 51, 3,
|52, 21, 3,
|52, 2, 3,
|52, 4, 3,
|52, 5, 3,
|52, 6, 3,
|52, 10, 3,
|52, 13, 3,
|3, 53, 3,
|54, 41, 3,
|54, 5, 3,
|54, 10, 3,
|54, 15, 3,
|54, 49, 3,
|54, 52, 3,
|31, 54, 3,
|51, 54, 3,
|54, 23, 3,
|55, 31, 3,
|55, 8, 3,
|55, 45, 3,
|55, 51, 3,
|12, 55, 3,
|56, 5, 3,
|57, 34, 3,
|57, 39, 3,
|57, 51, 3,
|9, 58, 3,
|58, 12, 3,
|58, 22, 3,
|58, 32, 3,
|58, 37, 3,
|58, 44, 3,
|59, 58, 3,
|18, 58, 3,
|41, 58, 3,
|59, 49, 3,
|59, 9, 3,
|59, 11, 3,
|59, 12, 3,
|16, 59, 3,
|60, 34, 3,
|60, 48, 3,
|60, 51, 3,
|60, 39, 3,
|];

nMeetingsBusiness = [10, 10, 7, 9, 8, 10, 10, 5, 9, 10, 5, 10, 7, 10, 10, 10, 7, 8, 1, 10, 10, 4, 10, 10, 10, 10, 6, 7, 10, 4, 8, 3, 10, 3, 6, 7, 10, 10, 6, 10, 10, 10, 10, 10, 8, 10, 3, 5, 9, 6, 9, 10, 3, 10, 8, 4, 8, 9, 7, 5, ];

fixat = [0,0,0,0,0,0,0,0,0,0,0,0,0,0,0,0,0,0,0,0,0,0,0,0,0,0,0,0,0,0,0,0,0,0,0,0,0,0,0,0,0,0,0,0,0,0,0,0,0,0,0,0,0,0,0,0,0,0,0,0,0,0,0,0,0,0,0,0,0,0,0,0,0,0,0,0,0,0,0,0,0,0,0,0,0,0,0,0,0,0,0,0,0,0,0,0,0,0,0,0,0,0,0,0,0,0,0,0,0,0,0,0,0,0,0,0,0,0,0,0,0,0,0,0,0,0,0,0,0,0,0,0,0,0,0,0,0,0,0,0,0,0,0,0,0,0,0,0,0,0,0,0,0,0,0,0,0,0,0,0,0,0,0,0,0,0,0,0,0,0,0,0,0,0,0,0,0,0,0,0,0,0,0,0,0,0,0,0,0,0,0,0,0,0,0,0,0,0,0,0,0,0,0,0,0,0,0,0,0,0,0,0,0,0,0,0,0,0,0,0,0,0,0,0,0,0,0,0,0,0,0,0,0,0,0,0,0,];

forbidden = [{0,},
{0,},
{0,},
{0,},
{0,},
{0,},
{0,},
{0,},
{0,},
{0,},
{0,},
{0,},
{0,},
{0,},
{0,},
{0,},
{0,},
{0,},
{0,},
{0,},
{0,},
{0,},
{0,},
{0,},
{0,},
{0,},
{0,},
{0,},
{0,},
{0,},
{0,},
{0,},
{0,},
{0,},
{0,},
{0,},
{0,},
{0,},
{0,},
{0,},
{0,},
{0,},
{0,},
{0,},
{0,},
{0,},
{0,},
{0,},
{0,},
{0,},
{0,},
{0,},
{0,},
{0,},
{0,},
{0,},
{0,},
{0,},
{0,},
{0,},
];